db/data/35672719410371188623047427788323847018.z3.out
-------------------
2500.282810212
